784 1568
1 2 5
1 29 4
2 3 5
2 30 4
3 4 4
3 31 5
4 5 1
4 32 3
5 6 5
5 33 1
6 7 2
6 34 1
7 8 4
7 35 2
8 9 1
8 36 3
9 10 2
9 37 5
10 11 4
10 38 5
11 12 4
11 39 4
12 13 3
12 40 5
13 14 5
13 41 2
14 15 1
14 42 4
15 16 2
15 43 3
16 17 4
16 44 5
17 18 2
17 45 2
18 19 4
18 46 1
19 20 5
19 47 4
20 21 4
20 48 2
21 22 1
21 49 4
22 23 3
22 50 4
23 24 1
23 51 4
24 25 1
24 52 5
25 26 5
25 53 5
26 27 3
26 54 3
27 28 4
27 55 2
28 56 5
29 30 4
29 57 5
30 31 2
30 58 3
31 32 3
31 59 3
32 33 4
32 60 5
33 34 3
33 61 5
34 35 2
34 62 2
35 36 3
35 63 5
36 37 5
36 64 5
37 38 3
37 65 4
38 39 5
38 66 2
39 40 1
39 67 1
40 41 2
40 68 4
41 42 1
41 69 2
42 43 1
42 70 1
43 44 1
43 71 5
44 45 1
44 72 2
45 46 2
45 73 5
46 47 1
46 74 1
47 48 3
47 75 4
48 49 1
48 76 2
49 50 5
49 77 5
50 51 3
50 78 5
51 52 2
51 79 4
52 53 5
52 80 2
53 54 1
53 81 4
54 55 5
54 82 1
55 56 1
55 83 1
56 84 2
57 58 2
57 85 1
58 59 4
58 86 3
59 60 3
59 87 2
60 61 1
60 88 2
61 62 5
61 89 2
62 63 1
62 90 1
63 64 4
63 91 5
64 65 2
64 92 3
65 66 5
65 93 5
66 67 2
66 94 4
67 68 3
67 95 1
68 69 4
68 96 1
69 70 1
69 97 1
70 71 1
70 98 4
71 72 1
71 99 4
72 73 1
72 100 3
73 74 3
73 101 1
74 75 5
74 102 4
75 76 3
75 103 5
76 77 1
76 104 3
77 78 1
77 105 4
78 79 4
78 106 5
79 80 3
79 107 3
80 81 2
80 108 2
81 82 4
81 109 3
82 83 4
82 110 1
83 84 4
83 111 3
84 112 3
85 86 2
85 113 1
86 87 2
86 114 3
87 88 1
87 115 5
88 89 5
88 116 5
89 90 3
89 117 3
90 91 5
90 118 2
91 92 2
91 119 2
92 93 3
92 120 3
93 94 3
93 121 3
94 95 5
94 122 2
95 96 4
95 123 4
96 97 2
96 124 3
97 98 2
97 125 4
98 99 5
98 126 1
99 100 1
99 127 3
100 101 5
100 128 4
101 102 1
101 129 4
102 103 3
102 130 1
103 104 4
103 131 1
104 105 2
104 132 5
105 106 1
105 133 2
106 107 2
106 134 5
107 108 1
107 135 4
108 109 4
108 136 1
109 110 2
109 137 4
110 111 2
110 138 5
111 112 3
111 139 1
112 140 5
113 114 3
113 141 3
114 115 4
114 142 4
115 116 4
115 143 2
116 117 4
116 144 4
117 118 2
117 145 5
118 119 5
118 146 3
119 120 2
119 147 3
120 121 2
120 148 3
121 122 3
121 149 5
122 123 3
122 150 3
123 124 4
123 151 1
124 125 5
124 152 2
125 126 3
125 153 1
126 127 3
126 154 4
127 128 5
127 155 5
128 129 5
128 156 2
129 130 5
129 157 1
130 131 1
130 158 4
131 132 3
131 159 1
132 133 1
132 160 4
133 134 5
133 161 1
134 135 3
134 162 5
135 136 5
135 163 4
136 137 3
136 164 4
137 138 3
137 165 4
138 139 3
138 166 5
139 140 4
139 167 4
140 168 5
141 142 3
141 169 4
142 143 5
142 170 5
143 144 5
143 171 4
144 145 4
144 172 1
145 146 1
145 173 3
146 147 5
146 174 4
147 148 4
147 175 5
148 149 1
148 176 4
149 150 1
149 177 4
150 151 1
150 178 1
151 152 2
151 179 3
152 153 4
152 180 1
153 154 4
153 181 4
154 155 2
154 182 1
155 156 2
155 183 2
156 157 2
156 184 2
157 158 1
157 185 4
158 159 4
158 186 4
159 160 1
159 187 1
160 161 2
160 188 4
161 162 2
161 189 3
162 163 4
162 190 4
163 164 3
163 191 5
164 165 1
164 192 3
165 166 2
165 193 3
166 167 3
166 194 5
167 168 5
167 195 4
168 196 4
169 170 1
169 197 4
170 171 5
170 198 1
171 172 3
171 199 5
172 173 4
172 200 1
173 174 4
173 201 4
174 175 5
174 202 3
175 176 1
175 203 4
176 177 1
176 204 5
177 178 1
177 205 1
178 179 5
178 206 2
179 180 2
179 207 3
180 181 1
180 208 3
181 182 5
181 209 1
182 183 5
182 210 1
183 184 2
183 211 2
184 185 3
184 212 3
185 186 2
185 213 3
186 187 5
186 214 4
187 188 4
187 215 2
188 189 3
188 216 4
189 190 1
189 217 3
190 191 5
190 218 5
191 192 1
191 219 1
192 193 5
192 220 2
193 194 3
193 221 3
194 195 3
194 222 2
195 196 2
195 223 4
196 224 3
197 198 3
197 225 1
198 199 4
198 226 1
199 200 1
199 227 4
200 201 4
200 228 2
201 202 5
201 229 5
202 203 3
202 230 1
203 204 2
203 231 2
204 205 5
204 232 1
205 206 1
205 233 2
206 207 5
206 234 4
207 208 2
207 235 3
208 209 2
208 236 2
209 210 1
209 237 3
210 211 3
210 238 3
211 212 5
211 239 5
212 213 2
212 240 5
213 214 1
213 241 5
214 215 3
214 242 1
215 216 3
215 243 4
216 217 1
216 244 4
217 218 1
217 245 3
218 219 1
218 246 1
219 220 4
219 247 4
220 221 2
220 248 1
221 222 2
221 249 1
222 223 3
222 250 4
223 224 3
223 251 3
224 252 4
225 226 1
225 253 1
226 227 5
226 254 2
227 228 3
227 255 2
228 229 4
228 256 3
229 230 4
229 257 4
230 231 4
230 258 3
231 232 2
231 259 4
232 233 3
232 260 1
233 234 2
233 261 5
234 235 4
234 262 3
235 236 1
235 263 5
236 237 2
236 264 1
237 238 5
237 265 3
238 239 3
238 266 2
239 240 1
239 267 5
240 241 1
240 268 5
241 242 5
241 269 4
242 243 2
242 270 3
243 244 3
243 271 2
244 245 5
244 272 5
245 246 5
245 273 3
246 247 3
246 274 3
247 248 2
247 275 4
248 249 5
248 276 5
249 250 2
249 277 5
250 251 1
250 278 4
251 252 2
251 279 1
252 280 4
253 254 1
253 281 4
254 255 1
254 282 3
255 256 3
255 283 1
256 257 1
256 284 5
257 258 4
257 285 2
258 259 4
258 286 5
259 260 5
259 287 1
260 261 5
260 288 1
261 262 2
261 289 3
262 263 2
262 290 3
263 264 5
263 291 2
264 265 2
264 292 2
265 266 4
265 293 4
266 267 1
266 294 3
267 268 1
267 295 5
268 269 3
268 296 5
269 270 1
269 297 5
270 271 2
270 298 5
271 272 5
271 299 4
272 273 5
272 300 3
273 274 3
273 301 3
274 275 4
274 302 3
275 276 5
275 303 2
276 277 4
276 304 3
277 278 3
277 305 4
278 279 1
278 306 3
279 280 4
279 307 4
280 308 2
281 282 1
281 309 4
282 283 3
282 310 4
283 284 3
283 311 3
284 285 2
284 312 2
285 286 4
285 313 2
286 287 5
286 314 3
287 288 4
287 315 3
288 289 2
288 316 2
289 290 4
289 317 1
290 291 1
290 318 4
291 292 3
291 319 1
292 293 3
292 320 4
293 294 3
293 321 1
294 295 3
294 322 2
295 296 1
295 323 1
296 297 5
296 324 3
297 298 2
297 325 4
298 299 3
298 326 1
299 300 2
299 327 2
300 301 5
300 328 5
301 302 1
301 329 2
302 303 5
302 330 4
303 304 5
303 331 4
304 305 4
304 332 3
305 306 1
305 333 4
306 307 1
306 334 2
307 308 5
307 335 3
308 336 5
309 310 1
309 337 5
310 311 2
310 338 1
311 312 5
311 339 1
312 313 3
312 340 2
313 314 4
313 341 5
314 315 2
314 342 5
315 316 3
315 343 3
316 317 2
316 344 3
317 318 1
317 345 5
318 319 5
318 346 2
319 320 5
319 347 1
320 321 3
320 348 4
321 322 5
321 349 1
322 323 5
322 350 5
323 324 2
323 351 3
324 325 5
324 352 1
325 326 5
325 353 2
326 327 1
326 354 3
327 328 1
327 355 5
328 329 4
328 356 2
329 330 3
329 357 3
330 331 4
330 358 2
331 332 3
331 359 1
332 333 4
332 360 4
333 334 2
333 361 4
334 335 1
334 362 5
335 336 4
335 363 3
336 364 2
337 338 2
337 365 1
338 339 2
338 366 1
339 340 2
339 367 1
340 341 3
340 368 5
341 342 1
341 369 4
342 343 4
342 370 3
343 344 2
343 371 5
344 345 4
344 372 4
345 346 5
345 373 1
346 347 1
346 374 2
347 348 4
347 375 1
348 349 1
348 376 3
349 350 1
349 377 1
350 351 1
350 378 5
351 352 5
351 379 2
352 353 4
352 380 2
353 354 2
353 381 1
354 355 3
354 382 5
355 356 2
355 383 5
356 357 1
356 384 3
357 358 3
357 385 2
358 359 2
358 386 1
359 360 5
359 387 5
360 361 1
360 388 2
361 362 4
361 389 4
362 363 4
362 390 2
363 364 1
363 391 5
364 392 1
365 366 1
365 393 4
366 367 5
366 394 5
367 368 2
367 395 1
368 369 5
368 396 5
369 370 2
369 397 3
370 371 5
370 398 3
371 372 1
371 399 5
372 373 3
372 400 1
373 374 5
373 401 3
374 375 2
374 402 5
375 376 4
375 403 3
376 377 5
376 404 3
377 378 2
377 405 1
378 379 4
378 406 4
379 380 1
379 407 1
380 381 4
380 408 3
381 382 4
381 409 4
382 383 4
382 410 1
383 384 4
383 411 4
384 385 2
384 412 3
385 386 5
385 413 3
386 387 1
386 414 4
387 388 1
387 415 4
388 389 3
388 416 3
389 390 4
389 417 5
390 391 5
390 418 3
391 392 1
391 419 5
392 420 5
393 394 3
393 421 3
394 395 2
394 422 4
395 396 5
395 423 1
396 397 2
396 424 2
397 398 5
397 425 2
398 399 5
398 426 4
399 400 4
399 427 1
400 401 3
400 428 3
401 402 5
401 429 3
402 403 1
402 430 2
403 404 1
403 431 2
404 405 1
404 432 5
405 406 5
405 433 1
406 407 1
406 434 2
407 408 1
407 435 1
408 409 5
408 436 2
409 410 4
409 437 1
410 411 2
410 438 5
411 412 2
411 439 3
412 413 1
412 440 3
413 414 1
413 441 5
414 415 4
414 442 3
415 416 1
415 443 2
416 417 5
416 444 5
417 418 1
417 445 2
418 419 5
418 446 2
419 420 5
419 447 2
420 448 2
421 422 5
421 449 2
422 423 1
422 450 3
423 424 3
423 451 5
424 425 2
424 452 2
425 426 5
425 453 5
426 427 3
426 454 1
427 428 4
427 455 2
428 429 2
428 456 2
429 430 1
429 457 5
430 431 3
430 458 3
431 432 5
431 459 1
432 433 1
432 460 1
433 434 2
433 461 1
434 435 1
434 462 5
435 436 3
435 463 3
436 437 2
436 464 1
437 438 4
437 465 5
438 439 5
438 466 5
439 440 2
439 467 5
440 441 2
440 468 3
441 442 2
441 469 2
442 443 4
442 470 2
443 444 1
443 471 1
444 445 3
444 472 5
445 446 2
445 473 2
446 447 3
446 474 1
447 448 5
447 475 3
448 476 2
449 450 2
449 477 1
450 451 1
450 478 1
451 452 2
451 479 4
452 453 3
452 480 4
453 454 4
453 481 5
454 455 1
454 482 4
455 456 2
455 483 4
456 457 2
456 484 3
457 458 4
457 485 5
458 459 2
458 486 4
459 460 4
459 487 2
460 461 1
460 488 4
461 462 2
461 489 1
462 463 3
462 490 3
463 464 4
463 491 3
464 465 2
464 492 2
465 466 1
465 493 4
466 467 2
466 494 2
467 468 3
467 495 4
468 469 4
468 496 3
469 470 1
469 497 3
470 471 2
470 498 2
471 472 1
471 499 3
472 473 3
472 500 2
473 474 4
473 501 1
474 475 2
474 502 1
475 476 3
475 503 5
476 504 4
477 478 2
477 505 1
478 479 2
478 506 2
479 480 3
479 507 2
480 481 4
480 508 3
481 482 4
481 509 2
482 483 2
482 510 1
483 484 1
483 511 5
484 485 1
484 512 5
485 486 3
485 513 1
486 487 5
486 514 4
487 488 1
487 515 5
488 489 2
488 516 1
489 490 2
489 517 4
490 491 1
490 518 3
491 492 4
491 519 3
492 493 5
492 520 2
493 494 1
493 521 2
494 495 3
494 522 4
495 496 3
495 523 4
496 497 5
496 524 2
497 498 2
497 525 1
498 499 2
498 526 3
499 500 5
499 527 3
500 501 3
500 528 2
501 502 3
501 529 4
502 503 2
502 530 4
503 504 2
503 531 1
504 532 2
505 506 5
505 533 3
506 507 2
506 534 4
507 508 2
507 535 1
508 509 1
508 536 5
509 510 5
509 537 1
510 511 4
510 538 2
511 512 5
511 539 3
512 513 4
512 540 1
513 514 3
513 541 2
514 515 3
514 542 5
515 516 2
515 543 5
516 517 4
516 544 3
517 518 2
517 545 4
518 519 1
518 546 1
519 520 2
519 547 1
520 521 3
520 548 5
521 522 5
521 549 4
522 523 1
522 550 1
523 524 2
523 551 5
524 525 5
524 552 4
525 526 3
525 553 5
526 527 2
526 554 3
527 528 5
527 555 4
528 529 1
528 556 5
529 530 3
529 557 1
530 531 3
530 558 2
531 532 1
531 559 3
532 560 3
533 534 1
533 561 1
534 535 4
534 562 2
535 536 5
535 563 5
536 537 3
536 564 3
537 538 4
537 565 1
538 539 4
538 566 4
539 540 5
539 567 1
540 541 2
540 568 5
541 542 4
541 569 1
542 543 1
542 570 4
543 544 4
543 571 2
544 545 2
544 572 4
545 546 4
545 573 1
546 547 1
546 574 1
547 548 5
547 575 5
548 549 5
548 576 1
549 550 4
549 577 2
550 551 5
550 578 2
551 552 5
551 579 2
552 553 4
552 580 1
553 554 2
553 581 4
554 555 2
554 582 5
555 556 5
555 583 1
556 557 1
556 584 4
557 558 2
557 585 4
558 559 2
558 586 4
559 560 3
559 587 5
560 588 2
561 562 4
561 589 4
562 563 4
562 590 2
563 564 5
563 591 3
564 565 3
564 592 3
565 566 4
565 593 1
566 567 1
566 594 2
567 568 2
567 595 1
568 569 4
568 596 5
569 570 3
569 597 4
570 571 5
570 598 3
571 572 3
571 599 2
572 573 5
572 600 1
573 574 4
573 601 5
574 575 2
574 602 2
575 576 2
575 603 4
576 577 2
576 604 3
577 578 5
577 605 1
578 579 2
578 606 2
579 580 3
579 607 5
580 581 5
580 608 4
581 582 5
581 609 1
582 583 5
582 610 5
583 584 5
583 611 1
584 585 1
584 612 2
585 586 5
585 613 4
586 587 3
586 614 5
587 588 5
587 615 4
588 616 2
589 590 4
589 617 3
590 591 4
590 618 5
591 592 4
591 619 2
592 593 5
592 620 4
593 594 5
593 621 1
594 595 3
594 622 2
595 596 4
595 623 5
596 597 5
596 624 4
597 598 3
597 625 1
598 599 3
598 626 4
599 600 1
599 627 5
600 601 2
600 628 2
601 602 5
601 629 2
602 603 4
602 630 2
603 604 4
603 631 3
604 605 3
604 632 3
605 606 3
605 633 1
606 607 5
606 634 3
607 608 4
607 635 3
608 609 3
608 636 1
609 610 3
609 637 4
610 611 4
610 638 2
611 612 4
611 639 4
612 613 2
612 640 2
613 614 1
613 641 1
614 615 3
614 642 2
615 616 3
615 643 2
616 644 5
617 618 4
617 645 1
618 619 2
618 646 5
619 620 2
619 647 1
620 621 5
620 648 4
621 622 5
621 649 1
622 623 2
622 650 4
623 624 1
623 651 4
624 625 4
624 652 2
625 626 5
625 653 1
626 627 4
626 654 4
627 628 5
627 655 3
628 629 1
628 656 5
629 630 5
629 657 2
630 631 5
630 658 5
631 632 3
631 659 2
632 633 4
632 660 2
633 634 3
633 661 5
634 635 1
634 662 1
635 636 5
635 663 5
636 637 2
636 664 3
637 638 5
637 665 1
638 639 5
638 666 1
639 640 2
639 667 2
640 641 3
640 668 5
641 642 3
641 669 5
642 643 4
642 670 2
643 644 1
643 671 5
644 672 5
645 646 1
645 673 4
646 647 5
646 674 4
647 648 5
647 675 2
648 649 4
648 676 3
649 650 4
649 677 4
650 651 4
650 678 1
651 652 4
651 679 4
652 653 5
652 680 5
653 654 3
653 681 1
654 655 1
654 682 1
655 656 4
655 683 4
656 657 4
656 684 2
657 658 4
657 685 3
658 659 1
658 686 3
659 660 4
659 687 5
660 661 4
660 688 2
661 662 4
661 689 5
662 663 2
662 690 5
663 664 5
663 691 4
664 665 5
664 692 5
665 666 4
665 693 4
666 667 2
666 694 2
667 668 1
667 695 5
668 669 3
668 696 3
669 670 2
669 697 4
670 671 4
670 698 1
671 672 5
671 699 4
672 700 1
673 674 1
673 701 1
674 675 2
674 702 4
675 676 1
675 703 1
676 677 3
676 704 4
677 678 3
677 705 5
678 679 5
678 706 4
679 680 2
679 707 5
680 681 4
680 708 4
681 682 4
681 709 2
682 683 2
682 710 5
683 684 5
683 711 5
684 685 5
684 712 3
685 686 5
685 713 2
686 687 4
686 714 4
687 688 2
687 715 2
688 689 5
688 716 2
689 690 4
689 717 2
690 691 1
690 718 4
691 692 1
691 719 2
692 693 4
692 720 3
693 694 1
693 721 2
694 695 3
694 722 3
695 696 5
695 723 4
696 697 5
696 724 3
697 698 4
697 725 4
698 699 1
698 726 5
699 700 5
699 727 1
700 728 5
701 702 4
701 729 2
702 703 1
702 730 4
703 704 1
703 731 1
704 705 2
704 732 5
705 706 2
705 733 2
706 707 5
706 734 4
707 708 4
707 735 4
708 709 3
708 736 3
709 710 1
709 737 3
710 711 5
710 738 1
711 712 3
711 739 3
712 713 1
712 740 3
713 714 3
713 741 4
714 715 3
714 742 4
715 716 2
715 743 5
716 717 1
716 744 3
717 718 5
717 745 4
718 719 4
718 746 5
719 720 4
719 747 3
720 721 3
720 748 3
721 722 3
721 749 5
722 723 5
722 750 3
723 724 5
723 751 4
724 725 1
724 752 4
725 726 3
725 753 1
726 727 1
726 754 5
727 728 1
727 755 5
728 756 3
729 730 4
729 757 1
730 731 2
730 758 1
731 732 5
731 759 3
732 733 2
732 760 3
733 734 4
733 761 3
734 735 5
734 762 3
735 736 1
735 763 2
736 737 4
736 764 5
737 738 5
737 765 2
738 739 2
738 766 1
739 740 3
739 767 1
740 741 3
740 768 5
741 742 3
741 769 4
742 743 5
742 770 5
743 744 3
743 771 5
744 745 3
744 772 2
745 746 1
745 773 4
746 747 1
746 774 2
747 748 3
747 775 3
748 749 5
748 776 3
749 750 4
749 777 4
750 751 4
750 778 1
751 752 2
751 779 5
752 753 1
752 780 4
753 754 4
753 781 4
754 755 3
754 782 3
755 756 2
755 783 4
756 784 5
757 758 2
758 759 1
759 760 1
760 761 4
761 762 5
762 763 4
763 764 5
764 765 2
765 766 5
766 767 2
767 768 1
768 769 4
769 770 5
770 771 5
771 772 3
772 773 5
773 774 2
774 775 4
775 776 4
776 777 5
777 778 4
778 779 3
779 780 2
780 781 4
781 782 5
782 783 5
783 784 1
1 757 1
2 758 1
3 759 3
4 760 4
5 761 3
6 762 5
7 763 3
8 764 4
9 765 1
10 766 5
11 767 4
12 768 1
13 769 5
14 770 3
15 771 1
16 772 2
17 773 2
18 774 5
19 775 3
20 776 4
21 777 2
22 778 4
23 779 4
24 780 5
25 781 3
26 782 4
27 783 1
28 784 1
1 28 5
29 56 2
57 84 3
85 112 3
113 140 5
141 168 4
169 196 5
197 224 5
225 252 3
253 280 4
281 308 2
309 336 2
337 364 1
365 392 3
393 420 1
421 448 3
449 476 2
477 504 2
505 532 2
533 560 5
561 588 5
589 616 3
617 644 5
645 672 5
673 700 1
701 728 5
729 756 5
757 784 5
